DIMENSION: 12
EDGE_WEIGHT_TYPE: EXPLICIT
EDGE_WEIGHT_FORMAT: FULL_MATRIX
EDGE_WEIGHT_SECTION:
32767 32767 32767 32767 32767 32767 32767 32767 8 19 32767 15 
32767 32767 32767 32767 32767 32767 32767 11 32767 16 32767 32767 
32767 32767 32767 91 48 73 32767 32767 32767 32767 8 89 
32767 32767 91 32767 32767 43 32767 32767 32767 32767 80 32767 
32767 32767 48 32767 32767 32767 32767 49 32767 32767 32767 32767 
32767 32767 73 43 32767 32767 48 32767 20 32767 32767 32767 
32767 32767 32767 32767 32767 48 32767 32767 32767 32767 32767 32767 
32767 11 32767 32767 49 32767 32767 32767 32767 63 32767 32767 
8 32767 32767 32767 32767 20 32767 32767 32767 77 32767 32767 
19 16 32767 32767 32767 32767 32767 63 77 32767 32767 32767 
32767 32767 8 80 32767 32767 32767 32767 32767 32767 32767 32767 
15 32767 89 32767 32767 32767 32767 32767 32767 32767 32767 32767 
EOF